certificates/rado_a13_c203_N45.cnf
c Rad2 upper bound instance: x1 + 13*x2 - x3 = 203, interval [1,45]
p cnf 45 308
1 6 16 0
-1 -6 -16 0
1 17 19 0
-1 -17 -19 0
1 18 32 0
-1 -18 -32 0
1 19 45 0
-1 -19 -45 0
2 7 16 0
-2 -7 -16 0
2 17 20 0
-2 -17 -20 0
2 18 33 0
-2 -18 -33 0
3 8 16 0
-3 -8 -16 0
3 17 21 0
-3 -17 -21 0
3 18 34 0
-3 -18 -34 0
4 9 16 0
-4 -9 -16 0
4 17 22 0
-4 -17 -22 0
4 18 35 0
-4 -18 -35 0
5 10 16 0
-5 -10 -16 0
5 17 23 0
-5 -17 -23 0
5 18 36 0
-5 -18 -36 0
6 11 16 0
-6 -11 -16 0
6 17 24 0
-6 -17 -24 0
6 18 37 0
-6 -18 -37 0
7 12 16 0
-7 -12 -16 0
7 17 25 0
-7 -17 -25 0
7 18 38 0
-7 -18 -38 0
8 13 16 0
-8 -13 -16 0
8 17 26 0
-8 -17 -26 0
8 18 39 0
-8 -18 -39 0
1 9 15 0
-1 -9 -15 0
9 14 16 0
-9 -14 -16 0
9 17 27 0
-9 -17 -27 0
9 18 40 0
-9 -18 -40 0
2 10 15 0
-2 -10 -15 0
10 15 16 0
-10 -15 -16 0
10 17 28 0
-10 -17 -28 0
10 18 41 0
-10 -18 -41 0
3 11 15 0
-3 -11 -15 0
11 16 0
-11 -16 0
11 17 29 0
-11 -17 -29 0
11 18 42 0
-11 -18 -42 0
4 12 15 0
-4 -12 -15 0
12 16 17 0
-12 -16 -17 0
12 17 30 0
-12 -17 -30 0
12 18 43 0
-12 -18 -43 0
5 13 15 0
-5 -13 -15 0
13 16 18 0
-13 -16 -18 0
13 17 31 0
-13 -17 -31 0
13 18 44 0
-13 -18 -44 0
6 14 15 0
-6 -14 -15 0
14 16 19 0
-14 -16 -19 0
14 17 32 0
-14 -17 -32 0
14 18 45 0
-14 -18 -45 0
7 15 0
-7 -15 0
15 16 20 0
-15 -16 -20 0
15 17 33 0
-15 -17 -33 0
8 15 16 0
-8 -15 -16 0
16 21 0
-16 -21 0
16 17 34 0
-16 -17 -34 0
9 15 17 0
-9 -15 -17 0
16 17 22 0
-16 -17 -22 0
17 35 0
-17 -35 0
10 15 18 0
-10 -15 -18 0
16 18 23 0
-16 -18 -23 0
17 18 36 0
-17 -18 -36 0
11 15 19 0
-11 -15 -19 0
16 19 24 0
-16 -19 -24 0
17 19 37 0
-17 -19 -37 0
12 15 20 0
-12 -15 -20 0
16 20 25 0
-16 -20 -25 0
17 20 38 0
-17 -20 -38 0
13 15 21 0
-13 -15 -21 0
16 21 26 0
-16 -21 -26 0
17 21 39 0
-17 -21 -39 0
1 14 22 0
-1 -14 -22 0
14 15 22 0
-14 -15 -22 0
16 22 27 0
-16 -22 -27 0
17 22 40 0
-17 -22 -40 0
2 14 23 0
-2 -14 -23 0
15 23 0
-15 -23 0
16 23 28 0
-16 -23 -28 0
17 23 41 0
-17 -23 -41 0
3 14 24 0
-3 -14 -24 0
15 16 24 0
-15 -16 -24 0
16 24 29 0
-16 -24 -29 0
17 24 42 0
-17 -24 -42 0
4 14 25 0
-4 -14 -25 0
15 17 25 0
-15 -17 -25 0
16 25 30 0
-16 -25 -30 0
17 25 43 0
-17 -25 -43 0
5 14 26 0
-5 -14 -26 0
15 18 26 0
-15 -18 -26 0
16 26 31 0
-16 -26 -31 0
17 26 44 0
-17 -26 -44 0
6 14 27 0
-6 -14 -27 0
15 19 27 0
-15 -19 -27 0
16 27 32 0
-16 -27 -32 0
17 27 45 0
-17 -27 -45 0
7 14 28 0
-7 -14 -28 0
15 20 28 0
-15 -20 -28 0
16 28 33 0
-16 -28 -33 0
8 14 29 0
-8 -14 -29 0
15 21 29 0
-15 -21 -29 0
16 29 34 0
-16 -29 -34 0
9 14 30 0
-9 -14 -30 0
15 22 30 0
-15 -22 -30 0
16 30 35 0
-16 -30 -35 0
10 14 31 0
-10 -14 -31 0
15 23 31 0
-15 -23 -31 0
16 31 36 0
-16 -31 -36 0
11 14 32 0
-11 -14 -32 0
15 24 32 0
-15 -24 -32 0
16 32 37 0
-16 -32 -37 0
12 14 33 0
-12 -14 -33 0
15 25 33 0
-15 -25 -33 0
16 33 38 0
-16 -33 -38 0
13 14 34 0
-13 -14 -34 0
15 26 34 0
-15 -26 -34 0
16 34 39 0
-16 -34 -39 0
1 13 35 0
-1 -13 -35 0
14 35 0
-14 -35 0
15 27 35 0
-15 -27 -35 0
16 35 40 0
-16 -35 -40 0
2 13 36 0
-2 -13 -36 0
14 15 36 0
-14 -15 -36 0
15 28 36 0
-15 -28 -36 0
16 36 41 0
-16 -36 -41 0
3 13 37 0
-3 -13 -37 0
14 16 37 0
-14 -16 -37 0
15 29 37 0
-15 -29 -37 0
16 37 42 0
-16 -37 -42 0
4 13 38 0
-4 -13 -38 0
14 17 38 0
-14 -17 -38 0
15 30 38 0
-15 -30 -38 0
16 38 43 0
-16 -38 -43 0
5 13 39 0
-5 -13 -39 0
14 18 39 0
-14 -18 -39 0
15 31 39 0
-15 -31 -39 0
16 39 44 0
-16 -39 -44 0
6 13 40 0
-6 -13 -40 0
14 19 40 0
-14 -19 -40 0
15 32 40 0
-15 -32 -40 0
16 40 45 0
-16 -40 -45 0
7 13 41 0
-7 -13 -41 0
14 20 41 0
-14 -20 -41 0
15 33 41 0
-15 -33 -41 0
8 13 42 0
-8 -13 -42 0
14 21 42 0
-14 -21 -42 0
15 34 42 0
-15 -34 -42 0
9 13 43 0
-9 -13 -43 0
14 22 43 0
-14 -22 -43 0
15 35 43 0
-15 -35 -43 0
10 13 44 0
-10 -13 -44 0
14 23 44 0
-14 -23 -44 0
15 36 44 0
-15 -36 -44 0
11 13 45 0
-11 -13 -45 0
14 24 45 0
-14 -24 -45 0
15 37 45 0
-15 -37 -45 0
