certificates/rado_a13_c203_N45.drat
16 -42 -45 0
-16 -44 -45 0
16 -45 0
d 16 -42 -45 0
42 -45 0
-18 -45 0
-16 -45 0
d -40 -16 -45 0
-45 0
18 0
16 -14 0
-16 0
11 0
21 0
40 0
-14 0
-42 0
-9 0
0
